42480
198,191,192,190,188,187,186,136,184,185,141,140,143,144,145,147,148,146,154,155,153,152,149,150,151,197,199,200,201,202,196,195,183,182,179,181,180,178,174,172,169,164,165,166,162,161,160,159,158,157,156,102,98,96,100,112,113,101,114,115,116,117,163,168,167,125,122,121,119,104,105,106,107,111,99,110,109,108,46,47,49,48,50,95,97,93,92,94,88,87,86,85,84,83,89,91,90,81,82,80,79,78,77,76,75,74,68,67,66,65,63,64,73,72,62,61,60,59,58,71,70,69,30,32,31,51,52,55,54,57,56,53,34,33,26,20,15,14,16,3,1,2,4,5,6,7,8,13,10,9,17,18,11,12,19,21,22,23,24,29,27,28,37,36,35,43,44,45,42,41,103,40,38,118,120,124,123,39,130,131,129,128,127,137,25,142,138,139,132,126,133,134,170,135,171,173,175,176,177,189,193,194,198
